
n_res = 4;
rcap = [26, 24, 1584, 1609];
rtype = [1, 1, 2, 2];
n_tasks = 100;
modes =  [{1, 2, 3, 4, 5, 6, 7, 8, 9}, {10, 11, 12, 13, 14, 15, 16, 17, 18}, {19, 20, 21, 22, 23, 24, 25, 26, 27}, {28, 29, 30, 31, 32, 33, 34, 35, 36}, {37, 38, 39, 40, 41, 42, 43, 44, 45}, {46, 47, 48, 49, 50, 51, 52, 53, 54}, {55, 56, 57, 58, 59, 60, 61, 62, 63}, {64, 65, 66, 67, 68, 69, 70, 71, 72}, {73, 74, 75, 76, 77, 78, 79, 80, 81}, {82, 83, 84, 85, 86, 87, 88, 89, 90}, {91, 92, 93, 94, 95, 96, 97, 98, 99}, {100, 101, 102, 103, 104, 105, 106, 107, 108}, {109, 110, 111, 112, 113, 114, 115, 116, 117}, {118, 119, 120, 121, 122, 123, 124, 125, 126}, {127, 128, 129, 130, 131, 132, 133, 134, 135}, {136, 137, 138, 139, 140, 141, 142, 143, 144}, {145, 146, 147, 148, 149, 150, 151, 152, 153}, {154, 155, 156, 157, 158, 159, 160, 161, 162}, {163, 164, 165, 166, 167, 168, 169, 170, 171}, {172, 173, 174, 175, 176, 177, 178, 179, 180}, {181, 182, 183, 184, 185, 186, 187, 188, 189}, {190, 191, 192, 193, 194, 195, 196, 197, 198}, {199, 200, 201, 202, 203, 204, 205, 206, 207}, {208, 209, 210, 211, 212, 213, 214, 215, 216}, {217, 218, 219, 220, 221, 222, 223, 224, 225}, {226, 227, 228, 229, 230, 231, 232, 233, 234}, {235, 236, 237, 238, 239, 240, 241, 242, 243}, {244, 245, 246, 247, 248, 249, 250, 251, 252}, {253, 254, 255, 256, 257, 258, 259, 260, 261}, {262, 263, 264, 265, 266, 267, 268, 269, 270}, {271, 272, 273, 274, 275, 276, 277, 278, 279}, {280, 281, 282, 283, 284, 285, 286, 287, 288}, {289, 290, 291, 292, 293, 294, 295, 296, 297}, {298, 299, 300, 301, 302, 303, 304, 305, 306}, {307, 308, 309, 310, 311, 312, 313, 314, 315}, {316, 317, 318, 319, 320, 321, 322, 323, 324}, {325, 326, 327, 328, 329, 330, 331, 332, 333}, {334, 335, 336, 337, 338, 339, 340, 341, 342}, {343, 344, 345, 346, 347, 348, 349, 350, 351}, {352, 353, 354, 355, 356, 357, 358, 359, 360}, {361, 362, 363, 364, 365, 366, 367, 368, 369}, {370, 371, 372, 373, 374, 375, 376, 377, 378}, {379, 380, 381, 382, 383, 384, 385, 386, 387}, {388, 389, 390, 391, 392, 393, 394, 395, 396}, {397, 398, 399, 400, 401, 402, 403, 404, 405}, {406, 407, 408, 409, 410, 411, 412, 413, 414}, {415, 416, 417, 418, 419, 420, 421, 422, 423}, {424, 425, 426, 427, 428, 429, 430, 431, 432}, {433, 434, 435, 436, 437, 438, 439, 440, 441}, {442, 443, 444, 445, 446, 447, 448, 449, 450}, {451, 452, 453, 454, 455, 456, 457, 458, 459}, {460, 461, 462, 463, 464, 465, 466, 467, 468}, {469, 470, 471, 472, 473, 474, 475, 476, 477}, {478, 479, 480, 481, 482, 483, 484, 485, 486}, {487, 488, 489, 490, 491, 492, 493, 494, 495}, {496, 497, 498, 499, 500, 501, 502, 503, 504}, {505, 506, 507, 508, 509, 510, 511, 512, 513}, {514, 515, 516, 517, 518, 519, 520, 521, 522}, {523, 524, 525, 526, 527, 528, 529, 530, 531}, {532, 533, 534, 535, 536, 537, 538, 539, 540}, {541, 542, 543, 544, 545, 546, 547, 548, 549}, {550, 551, 552, 553, 554, 555, 556, 557, 558}, {559, 560, 561, 562, 563, 564, 565, 566, 567}, {568, 569, 570, 571, 572, 573, 574, 575, 576}, {577, 578, 579, 580, 581, 582, 583, 584, 585}, {586, 587, 588, 589, 590, 591, 592, 593, 594}, {595, 596, 597, 598, 599, 600, 601, 602, 603}, {604, 605, 606, 607, 608, 609, 610, 611, 612}, {613, 614, 615, 616, 617, 618, 619, 620, 621}, {622, 623, 624, 625, 626, 627, 628, 629, 630}, {631, 632, 633, 634, 635, 636, 637, 638, 639}, {640, 641, 642, 643, 644, 645, 646, 647, 648}, {649, 650, 651, 652, 653, 654, 655, 656, 657}, {658, 659, 660, 661, 662, 663, 664, 665, 666}, {667, 668, 669, 670, 671, 672, 673, 674, 675}, {676, 677, 678, 679, 680, 681, 682, 683, 684}, {685, 686, 687, 688, 689, 690, 691, 692, 693}, {694, 695, 696, 697, 698, 699, 700, 701, 702}, {703, 704, 705, 706, 707, 708, 709, 710, 711}, {712, 713, 714, 715, 716, 717, 718, 719, 720}, {721, 722, 723, 724, 725, 726, 727, 728, 729}, {730, 731, 732, 733, 734, 735, 736, 737, 738}, {739, 740, 741, 742, 743, 744, 745, 746, 747}, {748, 749, 750, 751, 752, 753, 754, 755, 756}, {757, 758, 759, 760, 761, 762, 763, 764, 765}, {766, 767, 768, 769, 770, 771, 772, 773, 774}, {775, 776, 777, 778, 779, 780, 781, 782, 783}, {784, 785, 786, 787, 788, 789, 790, 791, 792}, {793, 794, 795, 796, 797, 798, 799, 800, 801}, {802, 803, 804, 805, 806, 807, 808, 809, 810}, {811, 812, 813, 814, 815, 816, 817, 818, 819}, {820, 821, 822, 823, 824, 825, 826, 827, 828}, {829, 830, 831, 832, 833, 834, 835, 836, 837}, {838, 839, 840, 841, 842, 843, 844, 845, 846}, {847, 848, 849, 850, 851, 852, 853, 854, 855}, {856, 857, 858, 859, 860, 861, 862, 863, 864}, {865, 866, 867, 868, 869, 870, 871, 872, 873}, {874, 875, 876, 877, 878, 879, 880, 881, 882}, {883, 884, 885, 886, 887, 888, 889, 890, 891}, {892, 893, 894, 895, 896, 897, 898, 899, 900}];
succ =  [{21, 16, 13, 9, 7, 3}, {21, 19, 18, 15, 14, 7}, {30, 26, 24, 22, 19, 18, 17, 15, 14}, {30, 26, 24, 22, 21, 19, 18, 14}, {22, 20, 11, 9}, {30, 21, 20, 16, 11}, {30, 26, 24, 22, 20, 12}, {38, 37, 30, 21, 17, 16, 15}, {41, 39, 35, 30, 29, 28, 24, 23, 19}, {33, 30, 22, 21, 20, 16}, {37, 35, 31, 28, 27, 26, 24, 17}, {41, 39, 38, 37, 35, 33, 29, 28, 23}, {41, 39, 38, 37, 33, 32, 31, 28, 22}, {38, 33, 28, 23, 20}, {49, 41, 39, 35, 32, 23}, {49, 41, 35, 23}, {49, 42, 41, 39, 34, 33, 32, 29}, {54, 49, 41, 39, 33, 31, 27}, {49, 37, 33, 27, 25}, {49, 42, 41, 37, 36, 35, 31, 29}, {54, 49, 44, 39, 35, 31, 27}, {49, 35, 29, 27}, {27, 25}, {49, 42, 38, 34, 32}, {59, 54, 46, 44, 43, 42, 40, 31}, {63, 59, 56, 54, 52, 49, 48, 45, 43, 42, 41}, {48, 46, 42, 40, 34}, {55, 54, 51, 49, 48, 43, 36}, {59, 54, 53, 48, 46, 43, 40}, {56, 52, 51, 49, 48, 47, 45, 44}, {64, 56, 53, 52, 51, 48, 47, 45}, {62, 54, 50, 46, 44, 40}, {59, 50, 48, 46, 40}, {51, 45, 36}, {62, 59, 50, 46, 40}, {63, 62, 60, 59, 58, 57, 56, 53, 52, 50}, {64, 63, 62, 60, 59, 58, 57, 56, 54, 50}, {67, 64, 63, 59, 57, 55, 48, 47}, {64, 60, 57, 56, 43}, {70, 66, 64, 63, 61, 60, 56, 51}, {64, 61, 51, 44}, {70, 67, 66, 64, 62, 60, 57, 55}, {67, 62, 47}, {70, 67, 66, 60, 58, 57}, {70, 66, 61, 58, 55}, {70, 58, 55, 51}, {72, 68, 66, 50}, {66, 62, 61, 60}, {70, 69, 66, 65, 64}, {70, 65, 61}, {72, 68, 57}, {79, 76, 74, 73, 69, 68, 65}, {65, 61}, {66, 61}, {74, 73, 72, 69, 65}, {79, 73, 67, 65}, {79, 76, 74, 69, 65}, {76, 72, 71, 69, 68}, {78, 77, 74, 73, 66}, {79, 77, 75, 74, 73, 71, 68}, {79, 76, 74, 73, 69}, {76, 74, 71, 69}, {78, 77, 75, 74, 71}, {81, 80, 79, 77, 76, 75, 73}, {100, 78, 77, 75, 71}, {100, 79, 76, 75, 71}, {84, 83, 81, 80, 78, 76, 74}, {100, 88, 85, 84, 83, 81, 80, 78}, {89, 81, 80, 78, 77, 75}, {100, 84, 80, 78, 75}, {88, 85, 84, 83, 82, 81, 80}, {100, 96, 89, 80, 79, 75}, {100, 99, 98, 88, 87, 84, 82}, {100, 99, 98, 96, 89, 88, 85, 82}, {99, 98, 95, 91, 88, 85, 82}, {99, 98, 96, 95, 91, 85, 82}, {99, 98, 97, 96, 95, 93, 91, 86, 85}, {99, 96, 95, 87, 82}, {98, 94, 93, 92, 88, 87, 86}, {97, 95, 93, 92, 87, 86}, {99, 98, 96, 93, 91, 86}, {97, 94, 93, 92, 86}, {96, 95, 94, 92, 87}, {95, 92, 90, 89}, {94, 92, 90}, {90}, {91}, {90}, {91}, {}, {}, {}, {}, {}, {}, {}, {}, {}, {}, {}];
n_opt = 900;
dur = [3, 7, 8, 14, 15, 16, 21, 25, 26, 4, 7, 8, 11, 13, 23, 25, 27, 28, 2, 3, 4, 5, 12, 13, 23, 27, 28, 8, 9, 11, 12, 14, 15, 17, 18, 29, 9, 14, 19, 20, 21, 22, 23, 24, 30, 4, 6, 9, 12, 17, 18, 20, 24, 26, 6, 8, 9, 11, 12, 19, 20, 26, 30, 3, 4, 5, 6, 12, 17, 18, 22, 27, 2, 10, 11, 18, 19, 25, 26, 28, 30, 3, 4, 5, 9, 11, 19, 23, 28, 30, 6, 7, 10, 13, 18, 19, 22, 28, 30, 1, 7, 14, 15, 16, 19, 20, 23, 27, 5, 7, 9, 15, 18, 22, 23, 24, 25, 2, 4, 5, 11, 12, 25, 27, 28, 29, 4, 12, 13, 16, 21, 22, 24, 25, 28, 6, 15, 18, 19, 21, 23, 27, 28, 29, 2, 5, 6, 12, 15, 18, 20, 26, 29, 1, 9, 14, 15, 18, 21, 22, 27, 29, 5, 6, 8, 15, 21, 22, 25, 26, 29, 4, 5, 6, 13, 17, 19, 20, 23, 24, 10, 13, 13, 14, 15, 18, 21, 24, 28, 3, 6, 14, 15, 16, 17, 18, 28, 29, 5, 10, 11, 13, 16, 18, 19, 20, 22, 1, 8, 10, 14, 20, 22, 25, 26, 30, 1, 7, 11, 13, 17, 20, 21, 29, 30, 2, 4, 5, 10, 20, 23, 25, 26, 29, 2, 3, 7, 16, 20, 21, 22, 25, 26, 3, 4, 6, 7, 8, 10, 12, 17, 22, 1, 6, 8, 10, 13, 24, 25, 26, 27, 1, 8, 12, 13, 19, 23, 27, 28, 29, 1, 8, 10, 11, 14, 20, 22, 26, 28, 3, 5, 16, 17, 21, 23, 24, 27, 29, 6, 8, 9, 18, 19, 24, 25, 27, 28, 2, 8, 10, 11, 12, 21, 22, 23, 24, 12, 13, 14, 15, 18, 21, 23, 27, 30, 4, 10, 12, 19, 21, 23, 25, 26, 30, 2, 3, 9, 22, 23, 24, 25, 26, 30, 2, 4, 7, 9, 14, 16, 24, 25, 30, 1, 6, 8, 9, 13, 15, 27, 28, 29, 2, 3, 7, 8, 10, 11, 12, 13, 29, 3, 7, 9, 15, 23, 24, 26, 27, 28, 4, 6, 12, 13, 18, 26, 28, 29, 30, 3, 6, 11, 12, 20, 22, 23, 24, 25, 1, 6, 8, 10, 13, 19, 26, 27, 28, 3, 5, 14, 19, 19, 20, 22, 24, 25, 7, 8, 14, 17, 20, 22, 24, 29, 30, 2, 6, 15, 21, 23, 24, 25, 26, 30, 7, 8, 11, 12, 13, 18, 21, 25, 29, 2, 6, 7, 10, 14, 15, 18, 21, 24, 3, 6, 11, 12, 14, 18, 23, 27, 30, 4, 12, 16, 20, 22, 23, 24, 25, 26, 4, 5, 8, 18, 26, 27, 28, 29, 30, 1, 10, 14, 16, 17, 18, 19, 23, 24, 2, 3, 8, 16, 19, 21, 25, 27, 28, 2, 5, 6, 7, 8, 9, 17, 18, 28, 4, 5, 7, 11, 13, 14, 16, 20, 24, 1, 5, 6, 8, 13, 14, 22, 23, 30, 3, 9, 13, 16, 19, 20, 23, 24, 29, 1, 2, 3, 12, 17, 20, 23, 24, 26, 1, 5, 13, 14, 15, 16, 17, 26, 27, 1, 3, 5, 17, 20, 23, 24, 27, 30, 2, 6, 11, 19, 22, 24, 26, 28, 29, 3, 4, 10, 11, 17, 21, 28, 29, 30, 2, 10, 11, 12, 14, 15, 18, 19, 25, 7, 9, 13, 14, 16, 20, 21, 23, 24, 1, 2, 4, 7, 13, 14, 19, 22, 27, 2, 4, 5, 9, 11, 12, 18, 22, 23, 4, 7, 8, 12, 16, 21, 27, 28, 29, 5, 9, 12, 16, 18, 19, 21, 23, 25, 9, 13, 16, 18, 19, 23, 24, 27, 28, 4, 5, 6, 8, 12, 15, 25, 26, 28, 4, 9, 10, 12, 14, 15, 22, 23, 29, 1, 6, 7, 13, 15, 19, 22, 24, 26, 7, 9, 15, 16, 17, 18, 19, 24, 27, 2, 7, 12, 13, 16, 21, 22, 23, 30, 4, 6, 10, 20, 21, 22, 25, 27, 30, 1, 8, 10, 13, 20, 22, 23, 26, 27, 1, 4, 7, 8, 9, 18, 21, 23, 27, 2, 3, 12, 13, 15, 21, 22, 26, 27, 3, 17, 19, 20, 23, 24, 25, 26, 27, 3, 4, 8, 12, 16, 19, 25, 26, 30, 7, 12, 14, 16, 21, 22, 23, 25, 26, 4, 10, 13, 14, 19, 20, 24, 25, 30, 8, 12, 16, 19, 21, 25, 27, 29, 30, 6, 7, 8, 11, 14, 15, 26, 27, 29, 1, 9, 10, 14, 15, 24, 25, 26, 27, 1, 3, 6, 8, 10, 15, 17, 20, 29, 2, 3, 7, 10, 13, 16, 25, 26, 30, 7, 9, 10, 12, 13, 17, 18, 22, 23, 2, 3, 7, 9, 14, 17, 21, 25, 26, 4, 5, 6, 7, 8, 9, 10, 17, 18, 2, 5, 6, 12, 17, 22, 23, 26, 28, 12, 13, 14, 15, 16, 17, 22, 27, 28, 4, 6, 10, 16, 17, 23, 24, 27, 30, 7, 12, 18, 19, 21, 22, 23, 24, 30, 3, 11, 16, 18, 19, 22, 23, 24, 28, 1, 2, 3, 4, 9, 21, 23, 24, 29, 7, 12, 13, 17, 19, 22, 27, 28, 30, 1, 3, 7, 9, 10, 13, 21, 28, 30, 1, 3, 4, 7, 10, 13, 17, 22, 28];
rreq = [|3, 2, 2, 2, 2, 1, 1, 1, 1, 4, 3, 3, 3, 2, 2, 2, 2, 2, 5, 4, 3, 3, 3, 2, 2, 1, 1, 5, 4, 4, 4, 4, 4, 4, 4, 4, 5, 5, 5, 5, 5, 5, 5, 5, 5, 5, 5, 5, 5, 5, 5, 5, 5, 5, 5, 4, 4, 4, 3, 3, 3, 2, 2, 4, 4, 4, 3, 3, 3, 2, 2, 2, 1, 1, 1, 1, 1, 1, 1, 1, 1, 3, 3, 3, 3, 2, 2, 1, 1, 1, 5, 4, 3, 3, 2, 2, 1, 1, 1, 3, 3, 3, 3, 3, 3, 3, 3, 3, 3, 3, 3, 3, 2, 2, 1, 1, 1, 4, 3, 3, 3, 3, 3, 3, 3, 3, 5, 4, 4, 4, 4, 4, 4, 4, 4, 5, 4, 4, 3, 3, 2, 1, 1, 1, 2, 2, 2, 2, 2, 2, 2, 2, 2, 4, 4, 3, 3, 2, 2, 1, 1, 1, 5, 5, 5, 5, 5, 5, 5, 5, 5, 5, 4, 4, 4, 3, 3, 3, 3, 3, 4, 4, 4, 4, 4, 3, 3, 3, 3, 4, 4, 4, 3, 3, 3, 2, 2, 2, 3, 3, 3, 3, 2, 2, 2, 2, 2, 4, 4, 4, 3, 3, 2, 1, 1, 1, 5, 4, 4, 3, 3, 2, 1, 1, 1, 5, 4, 4, 3, 2, 2, 2, 1, 1, 4, 3, 3, 3, 2, 2, 2, 2, 2, 4, 4, 4, 4, 4, 4, 4, 4, 4, 5, 4, 4, 4, 3, 3, 3, 2, 2, 1, 1, 1, 1, 1, 1, 1, 1, 1, 4, 4, 4, 4, 3, 3, 2, 2, 2, 4, 3, 3, 3, 2, 2, 2, 1, 1, 4, 4, 4, 4, 3, 3, 3, 2, 2, 2, 2, 2, 2, 2, 2, 2, 2, 2, 5, 5, 5, 5, 5, 5, 5, 5, 5, 5, 4, 4, 4, 4, 4, 4, 4, 4, 5, 4, 4, 3, 2, 2, 2, 1, 1, 1, 1, 1, 1, 1, 1, 1, 1, 1, 4, 3, 3, 3, 3, 3, 3, 3, 3, 4, 4, 4, 4, 3, 3, 3, 3, 3, 4, 4, 4, 4, 4, 4, 4, 4, 4, 5, 4, 4, 4, 4, 4, 4, 4, 4, 3, 3, 3, 3, 3, 3, 3, 3, 3, 5, 4, 4, 4, 4, 4, 4, 4, 4, 4, 3, 3, 3, 3, 2, 2, 2, 2, 5, 4, 4, 3, 3, 2, 1, 1, 1, 5, 4, 3, 3, 2, 2, 2, 1, 1, 2, 2, 2, 2, 2, 2, 2, 2, 2, 1, 1, 1, 1, 1, 1, 1, 1, 1, 5, 5, 5, 5, 5, 5, 5, 5, 5, 4, 3, 3, 2, 2, 2, 1, 1, 1, 4, 4, 4, 3, 2, 2, 2, 1, 1, 1, 1, 1, 1, 1, 1, 1, 1, 1, 3, 3, 3, 3, 3, 3, 3, 3, 3, 1, 1, 1, 1, 1, 1, 1, 1, 1, 4, 4, 4, 4, 3, 3, 3, 3, 3, 2, 1, 1, 1, 1, 1, 1, 1, 1, 3, 2, 2, 2, 2, 2, 2, 2, 2, 4, 4, 4, 4, 3, 3, 3, 2, 2, 4, 4, 4, 4, 4, 4, 4, 4, 4, 4, 3, 3, 3, 2, 2, 1, 1, 1, 4, 3, 3, 3, 3, 3, 3, 3, 3, 5, 4, 4, 4, 4, 4, 4, 4, 4, 3, 3, 3, 3, 3, 3, 3, 3, 3, 5, 4, 4, 4, 4, 3, 3, 3, 3, 4, 3, 3, 3, 2, 2, 2, 1, 1, 4, 3, 3, 2, 2, 2, 2, 1, 1, 4, 3, 3, 3, 3, 3, 3, 3, 3, 1, 1, 1, 1, 1, 1, 1, 1, 1, 3, 3, 3, 3, 3, 2, 2, 2, 2, 4, 4, 3, 3, 2, 2, 1, 1, 1, 3, 2, 2, 2, 2, 2, 2, 2, 2, 4, 3, 3, 3, 3, 3, 3, 3, 3, 4, 4, 4, 4, 4, 4, 4, 4, 4, 3, 3, 3, 3, 2, 2, 2, 2, 2, 4, 4, 4, 4, 3, 3, 3, 3, 3, 4, 4, 4, 3, 3, 2, 2, 1, 1, 4, 4, 4, 4, 3, 3, 3, 3, 3, 4, 4, 4, 4, 3, 3, 3, 2, 2, 1, 1, 1, 1, 1, 1, 1, 1, 1, 3, 3, 3, 3, 3, 2, 2, 2, 2, 4, 4, 4, 4, 3, 3, 3, 3, 3, 5, 4, 4, 4, 3, 3, 3, 3, 3, 5, 4, 4, 3, 3, 2, 1, 1, 1, 4, 3, 3, 3, 3, 3, 3, 3, 3, 4, 4, 4, 4, 3, 3, 3, 2, 2, 1, 1, 1, 1, 1, 1, 1, 1, 1, 4, 4, 3, 3, 2, 2, 1, 1, 1, 3, 2, 2, 2, 2, 2, 2, 2, 2, 2, 2, 2, 2, 2, 2, 2, 2, 2, 3, 3, 3, 3, 3, 3, 3, 3, 3, 5, 4, 4, 4, 3, 3, 2, 2, 2, 3, 2, 2, 2, 1, 1, 1, 1, 1, 5, 5, 5, 5, 5, 5, 5, 5, 5, 3, 3, 3, 3, 3, 3, 3, 3, 3, 2, 2, 2, 2, 2, 1, 1, 1, 1, 5, 5, 5, 5, 5, 5, 5, 5, 5, 4, 3, 3, 3, 2, 2, 2, 1, 1, 5, 4, 4, 4, 3, 3, 3, 3, 3, 2, 1, 1, 1, 1, 1, 1, 1, 1
 |3, 2, 2, 2, 1, 1, 1, 1, 1, 4, 4, 4, 3, 3, 3, 2, 2, 2, 3, 3, 3, 3, 3, 2, 2, 2, 2, 3, 3, 3, 3, 2, 2, 2, 2, 2, 5, 4, 4, 4, 3, 3, 2, 2, 2, 4, 4, 3, 3, 3, 2, 1, 1, 1, 5, 4, 4, 3, 2, 2, 2, 1, 1, 3, 3, 3, 3, 3, 3, 3, 3, 3, 4, 3, 3, 3, 3, 3, 3, 3, 3, 2, 2, 2, 2, 2, 2, 2, 2, 2, 4, 4, 4, 4, 4, 4, 4, 4, 4, 3, 3, 3, 3, 2, 2, 2, 2, 2, 2, 2, 2, 2, 2, 2, 2, 2, 2, 4, 3, 3, 3, 3, 3, 3, 3, 3, 4, 4, 4, 4, 4, 4, 4, 4, 4, 3, 3, 3, 3, 2, 2, 2, 2, 2, 3, 3, 3, 3, 2, 2, 2, 2, 2, 2, 2, 2, 2, 2, 2, 2, 2, 2, 4, 4, 4, 4, 3, 3, 3, 3, 3, 3, 3, 3, 3, 3, 3, 3, 3, 3, 5, 4, 4, 4, 3, 3, 3, 2, 2, 4, 4, 4, 4, 3, 3, 3, 3, 3, 2, 2, 2, 2, 2, 2, 2, 2, 2, 3, 2, 2, 2, 2, 1, 1, 1, 1, 3, 3, 3, 3, 3, 3, 3, 3, 3, 5, 4, 4, 4, 4, 4, 4, 4, 4, 2, 2, 2, 2, 2, 2, 2, 2, 2, 1, 1, 1, 1, 1, 1, 1, 1, 1, 5, 5, 5, 5, 5, 5, 5, 5, 5, 4, 4, 4, 3, 3, 3, 3, 2, 2, 3, 2, 2, 2, 1, 1, 1, 1, 1, 4, 3, 3, 3, 2, 2, 2, 2, 2, 5, 4, 4, 3, 3, 2, 2, 1, 1, 1, 1, 1, 1, 1, 1, 1, 1, 1, 3, 3, 3, 3, 3, 3, 3, 3, 3, 4, 3, 3, 3, 3, 2, 2, 2, 2, 3, 3, 3, 3, 3, 3, 3, 3, 3, 2, 2, 2, 2, 2, 2, 2, 2, 2, 4, 3, 3, 3, 3, 2, 2, 2, 2, 5, 4, 4, 4, 4, 4, 4, 4, 4, 3, 3, 3, 3, 3, 3, 3, 3, 3, 5, 4, 4, 3, 2, 2, 2, 1, 1, 5, 4, 4, 4, 4, 4, 4, 4, 4, 3, 3, 3, 2, 2, 2, 2, 1, 1, 2, 2, 2, 2, 2, 2, 2, 2, 2, 2, 2, 2, 2, 1, 1, 1, 1, 1, 1, 1, 1, 1, 1, 1, 1, 1, 1, 4, 3, 3, 3, 2, 2, 1, 1, 1, 4, 4, 4, 4, 3, 3, 2, 2, 2, 5, 4, 4, 3, 3, 2, 2, 1, 1, 2, 2, 2, 2, 2, 2, 2, 2, 2, 3, 3, 3, 3, 3, 3, 3, 3, 3, 5, 4, 4, 3, 3, 3, 3, 2, 2, 3, 3, 3, 3, 2, 2, 2, 2, 2, 3, 2, 2, 2, 2, 2, 2, 2, 2, 2, 2, 2, 2, 2, 2, 2, 2, 2, 4, 4, 3, 3, 3, 2, 2, 1, 1, 4, 3, 3, 2, 2, 2, 1, 1, 1, 3, 2, 2, 2, 2, 2, 2, 2, 2, 2, 2, 2, 2, 2, 2, 2, 2, 2, 5, 4, 4, 3, 2, 2, 2, 1, 1, 5, 4, 4, 4, 4, 4, 4, 4, 4, 5, 4, 4, 3, 2, 2, 1, 1, 1, 3, 2, 2, 2, 2, 2, 2, 2, 2, 4, 4, 4, 3, 3, 3, 2, 2, 2, 2, 2, 2, 2, 2, 2, 2, 2, 2, 3, 3, 3, 3, 3, 3, 3, 3, 3, 5, 4, 4, 4, 4, 4, 4, 4, 4, 4, 4, 4, 3, 3, 2, 1, 1, 1, 3, 2, 2, 2, 1, 1, 1, 1, 1, 4, 4, 3, 3, 2, 2, 2, 1, 1, 4, 3, 3, 2, 2, 2, 1, 1, 1, 4, 4, 4, 4, 4, 4, 4, 4, 4, 4, 4, 4, 4, 4, 3, 3, 3, 3, 3, 3, 3, 3, 3, 3, 3, 3, 3, 4, 3, 3, 3, 2, 2, 2, 1, 1, 2, 2, 2, 2, 2, 1, 1, 1, 1, 3, 2, 2, 2, 1, 1, 1, 1, 1, 2, 1, 1, 1, 1, 1, 1, 1, 1, 5, 4, 4, 3, 2, 2, 2, 1, 1, 4, 4, 3, 3, 3, 2, 2, 1, 1, 4, 4, 4, 4, 4, 4, 4, 4, 4, 3, 2, 2, 2, 1, 1, 1, 1, 1, 3, 2, 2, 2, 2, 2, 2, 2, 2, 3, 3, 3, 3, 3, 3, 3, 3, 3, 4, 4, 4, 4, 3, 3, 3, 3, 3, 5, 5, 5, 5, 5, 5, 5, 5, 5, 4, 4, 4, 3, 3, 3, 3, 2, 2, 3, 3, 3, 3, 2, 2, 1, 1, 1, 4, 4, 4, 3, 2, 2, 2, 1, 1, 4, 3, 3, 3, 2, 2, 2, 2, 2, 3, 2, 2, 2, 2, 1, 1, 1, 1, 5, 5, 5, 5, 5, 5, 5, 5, 5, 3, 2, 2, 2, 2, 1, 1, 1, 1, 3, 3, 3, 2, 2, 2, 2, 1, 1, 1, 1, 1, 1, 1, 1, 1, 1, 1, 2, 2, 2, 2, 1, 1, 1, 1, 1, 4, 3, 3, 2, 2, 2, 1, 1, 1, 2, 2, 2, 2, 2, 2, 2, 2, 2, 3, 2, 2, 2, 2, 2, 2, 2, 2
 |16, 15, 15, 15, 14, 14, 14, 13, 13, 5, 5, 5, 5, 4, 4, 4, 4, 4, 26, 26, 25, 25, 23, 23, 23, 21, 21, 12, 11, 11, 11, 11, 10, 10, 10, 10, 11, 9, 9, 8, 6, 5, 4, 3, 3, 23, 23, 22, 20, 20, 19, 18, 16, 15, 24, 23, 20, 18, 17, 16, 15, 13, 10, 26, 24, 24, 23, 23, 22, 22, 20, 20, 22, 20, 20, 19, 18, 16, 15, 14, 14, 28, 28, 28, 28, 27, 27, 27, 26, 26, 25, 21, 20, 15, 15, 12, 7, 3, 3, 19, 17, 15, 14, 13, 11, 7, 6, 5, 5, 4, 4, 4, 4, 3, 3, 3, 3, 4, 4, 3, 3, 3, 2, 2, 1, 1, 19, 17, 15, 11, 11, 7, 5, 4, 2, 27, 27, 27, 26, 26, 26, 25, 25, 25, 27, 26, 26, 26, 26, 26, 26, 26, 26, 24, 23, 20, 18, 16, 14, 14, 12, 10, 17, 16, 15, 15, 15, 14, 14, 13, 13, 26, 26, 24, 23, 22, 21, 20, 20, 18, 25, 25, 24, 24, 22, 22, 22, 20, 20, 18, 17, 15, 12, 10, 8, 8, 5, 4, 18, 18, 15, 14, 12, 10, 6, 4, 4, 29, 28, 28, 28, 27, 27, 26, 25, 25, 18, 15, 15, 12, 11, 7, 6, 5, 3, 6, 6, 6, 5, 4, 4, 3, 3, 3, 26, 25, 22, 18, 15, 12, 12, 7, 6, 15, 12, 12, 11, 8, 8, 5, 4, 3, 5, 5, 4, 4, 4, 3, 3, 2, 2, 7, 6, 5, 4, 3, 3, 2, 2, 1, 24, 23, 22, 21, 21, 20, 18, 18, 17, 25, 23, 21, 17, 14, 10, 6, 3, 3, 29, 28, 26, 24, 24, 23, 20, 20, 18, 26, 24, 21, 19, 16, 13, 10, 9, 5, 23, 20, 19, 19, 16, 15, 15, 12, 12, 29, 24, 22, 20, 14, 11, 9, 8, 2, 29, 27, 24, 24, 21, 21, 20, 17, 17, 4, 4, 4, 3, 3, 3, 2, 2, 2, 21, 20, 19, 18, 17, 16, 14, 12, 11, 18, 17, 16, 16, 15, 15, 14, 14, 13, 22, 20, 19, 19, 18, 17, 15, 14, 14, 10, 8, 8, 6, 6, 5, 3, 3, 1, 28, 28, 27, 27, 25, 25, 24, 24, 23, 20, 20, 17, 15, 12, 10, 9, 7, 6, 24, 22, 20, 20, 15, 14, 13, 10, 8, 23, 18, 18, 16, 14, 11, 9, 6, 6, 30, 27, 27, 26, 24, 23, 22, 20, 18, 29, 29, 29, 29, 28, 28, 28, 27, 27, 10, 9, 9, 9, 9, 9, 9, 9, 9, 26, 24, 24, 22, 22, 21, 21, 19, 19, 7, 7, 7, 7, 7, 7, 7, 7, 7, 16, 16, 14, 12, 11, 10, 10, 8, 6, 19, 17, 16, 15, 11, 11, 9, 7, 6, 9, 8, 8, 8, 7, 7, 7, 7, 7, 27, 25, 24, 24, 22, 22, 21, 19, 19, 22, 21, 21, 20, 20, 19, 19, 18, 18, 19, 17, 16, 13, 12, 11, 8, 8, 6, 13, 12, 11, 11, 10, 9, 8, 8, 7, 22, 19, 17, 14, 10, 10, 5, 3, 3, 16, 15, 12, 12, 8, 7, 6, 3, 2, 19, 18, 18, 17, 16, 14, 13, 12, 11, 24, 24, 24, 24, 23, 23, 22, 22, 22, 20, 18, 18, 16, 13, 12, 11, 8, 7, 14, 12, 12, 9, 9, 7, 6, 4, 1, 16, 16, 15, 15, 14, 13, 12, 12, 11, 24, 24, 24, 24, 23, 23, 22, 22, 22, 16, 16, 16, 16, 16, 16, 16, 16, 16, 29, 28, 28, 28, 27, 27, 27, 27, 27, 21, 20, 19, 19, 18, 17, 17, 16, 16, 27, 21, 20, 17, 16, 13, 9, 8, 6, 23, 22, 22, 22, 21, 21, 21, 20, 20, 21, 20, 19, 17, 17, 16, 14, 14, 13, 28, 25, 24, 21, 19, 14, 11, 9, 8, 23, 22, 22, 21, 21, 21, 20, 20, 20, 3, 3, 3, 3, 3, 3, 3, 3, 3, 25, 23, 22, 19, 19, 17, 15, 15, 14, 11, 11, 11, 11, 11, 11, 11, 11, 11, 27, 26, 26, 24, 23, 22, 21, 21, 20, 10, 9, 9, 9, 8, 8, 8, 8, 8, 19, 18, 18, 17, 16, 15, 14, 12, 12, 20, 19, 17, 16, 13, 13, 12, 9, 7, 26, 26, 24, 23, 23, 21, 20, 19, 18, 5, 5, 5, 5, 5, 5, 5, 5, 5, 22, 20, 20, 19, 17, 16, 15, 15, 13, 16, 15, 13, 10, 9, 6, 5, 4, 1, 29, 28, 28, 28, 28, 27, 27, 27, 27, 21, 20, 20, 19, 19, 18, 17, 16, 16, 28, 27, 26, 26, 25, 25, 25, 24, 24, 24, 24, 20, 17, 14, 11, 9, 7, 4, 27, 21, 18, 16, 15, 13, 8, 4, 3, 29, 29, 29, 29, 29, 29, 29, 29, 29, 14, 12, 12, 12, 11, 11, 10, 9, 9, 27, 27, 27, 26, 26, 26, 25, 25, 25, 18, 17, 16, 15, 13, 11, 10, 8, 8, 29, 28, 28, 27, 27, 26, 26, 25, 25, 8, 8, 8, 8, 8, 8, 8, 8, 8, 24, 21, 21, 16, 15, 13, 9, 8, 6, 27, 25, 25, 23, 22, 20, 20, 18, 18, 22, 22, 18, 17, 12, 10, 7, 4, 2, 28, 26, 23, 21, 19, 16, 15, 11, 11
 |27, 26, 24, 23, 21, 21, 19, 18, 16, 25, 23, 22, 22, 22, 21, 21, 20, 19, 24, 18, 18, 14, 11, 11, 6, 6, 3, 10, 8, 7, 6, 5, 4, 3, 2, 1, 18, 14, 12, 11, 10, 7, 5, 3, 1, 19, 17, 17, 16, 13, 13, 12, 10, 9, 16, 16, 15, 13, 12, 11, 10, 9, 8, 24, 24, 22, 21, 19, 18, 16, 14, 13, 22, 21, 19, 14, 13, 10, 9, 4, 2, 27, 24, 23, 22, 21, 20, 19, 19, 18, 23, 22, 22, 22, 22, 22, 22, 22, 21, 18, 17, 15, 13, 10, 7, 6, 3, 2, 20, 19, 18, 17, 16, 16, 15, 14, 13, 25, 22, 21, 19, 14, 12, 10, 4, 3, 17, 15, 13, 13, 10, 10, 8, 7, 5, 30, 27, 22, 20, 16, 16, 10, 9, 5, 14, 14, 13, 11, 10, 9, 8, 7, 6, 21, 19, 15, 14, 13, 11, 8, 5, 4, 24, 23, 23, 22, 23, 23, 22, 23, 22, 28, 27, 27, 27, 26, 25, 25, 24, 24, 8, 6, 7, 6, 5, 4, 3, 3, 2, 22, 20, 20, 18, 18, 16, 15, 14, 14, 20, 19, 18, 16, 14, 13, 13, 11, 10, 29, 29, 28, 29, 29, 29, 29, 29, 28, 25, 24, 23, 24, 24, 23, 23, 23, 23, 16, 13, 12, 12, 10, 9, 8, 8, 7, 20, 18, 18, 17, 16, 15, 14, 12, 12, 17, 16, 15, 14, 14, 13, 11, 11, 10, 16, 16, 15, 14, 14, 13, 12, 13, 12, 22, 21, 21, 20, 19, 18, 18, 18, 18, 29, 28, 28, 28, 28, 28, 28, 27, 28, 14, 13, 13, 13, 12, 12, 12, 11, 10, 14, 13, 12, 12, 11, 10, 10, 9, 8, 18, 16, 15, 12, 12, 11, 8, 7, 6, 10, 10, 10, 9, 8, 7, 6, 6, 5, 16, 16, 14, 14, 12, 11, 10, 9, 9, 17, 16, 15, 14, 13, 12, 12, 11, 10, 26, 25, 24, 23, 21, 20, 20, 18, 17, 6, 6, 6, 6, 6, 5, 5, 5, 5, 27, 25, 24, 20, 20, 17, 15, 13, 12, 17, 17, 17, 16, 16, 15, 14, 15, 14, 20, 19, 17, 17, 15, 14, 13, 12, 12, 23, 22, 17, 16, 15, 10, 9, 5, 4, 24, 23, 23, 23, 23, 23, 23, 23, 23, 3, 2, 2, 1, 2, 2, 2, 2, 2, 29, 28, 27, 27, 26, 25, 24, 23, 22, 11, 10, 10, 10, 10, 9, 9, 9, 9, 13, 12, 11, 10, 9, 8, 7, 6, 5, 16, 15, 12, 11, 10, 9, 6, 3, 2, 30, 29, 28, 29, 28, 28, 27, 28, 27, 21, 18, 17, 16, 13, 12, 12, 10, 8, 28, 23, 22, 20, 17, 17, 13, 11, 10, 28, 28, 28, 28, 28, 27, 28, 28, 28, 20, 20, 19, 18, 19, 18, 17, 16, 15, 17, 14, 14, 13, 12, 10, 10, 8, 7, 24, 22, 20, 19, 19, 16, 15, 15, 14, 22, 22, 21, 20, 20, 19, 19, 18, 18, 26, 24, 22, 20, 19, 17, 16, 14, 14, 22, 20, 20, 17, 16, 15, 13, 12, 11, 29, 29, 28, 26, 25, 24, 24, 23, 22, 25, 22, 19, 15, 14, 12, 10, 6, 3, 27, 26, 24, 23, 20, 19, 18, 17, 15, 21, 20, 19, 20, 20, 20, 20, 20, 20, 28, 26, 23, 20, 19, 16, 16, 13, 12, 11, 11, 11, 11, 11, 11, 11, 10, 11, 20, 19, 18, 17, 18, 17, 18, 17, 16, 27, 26, 25, 23, 21, 20, 17, 16, 15, 23, 20, 18, 17, 14, 10, 9, 7, 4, 23, 19, 18, 17, 12, 12, 10, 5, 3, 24, 24, 22, 20, 18, 15, 12, 11, 9, 28, 27, 25, 24, 22, 21, 19, 19, 17, 24, 22, 19, 17, 14, 9, 8, 4, 1, 16, 14, 13, 13, 12, 10, 9, 8, 7, 20, 19, 18, 18, 17, 17, 15, 14, 13, 24, 22, 20, 17, 17, 15, 13, 12, 9, 28, 27, 26, 24, 24, 23, 21, 21, 20, 25, 24, 21, 20, 19, 16, 14, 12, 8, 10, 9, 8, 7, 7, 7, 6, 5, 5, 27, 26, 24, 19, 16, 15, 14, 10, 7, 21, 21, 20, 21, 21, 21, 21, 21, 20, 16, 15, 14, 13, 13, 13, 12, 12, 11, 30, 28, 28, 27, 27, 26, 26, 25, 24, 22, 20, 19, 16, 13, 11, 10, 7, 6, 12, 12, 11, 9, 8, 8, 6, 5, 5, 18, 18, 16, 16, 14, 14, 12, 11, 11, 13, 13, 11, 10, 8, 7, 6, 6, 5, 29, 26, 25, 25, 24, 23, 22, 20, 19, 20, 18, 16, 15, 14, 13, 12, 12, 11, 8, 8, 7, 6, 6, 6, 5, 5, 4, 24, 22, 22, 20, 18, 17, 17, 15, 14, 11, 9, 8, 7, 7, 6, 5, 4, 3, 17, 17, 16, 15, 17, 17, 17, 17, 16, 27, 24, 21, 18, 16, 13, 8, 5, 4, 11, 10, 10, 10, 9, 9, 8, 8, 7, 17, 14, 13, 13, 11, 10, 8, 7, 5, 18, 17, 16, 15, 14, 14, 13, 12, 11, 28, 26, 25, 23, 22, 21, 18, 18, 16, 24, 22, 21, 21, 19, 18, 17, 17, 16, 21, 20, 17, 15, 13, 11, 9, 7, 5, 25, 20, 18, 16, 15, 12, 11, 8, 6|];